NAME          
ROWS
 N  OBJ
 L  c1
 L  c2
COLUMNS
    MARKER    'MARKER'                 'INTORG'
    x[1]      c1        496
    x[1]      c2        630
    x[1]      OBJ       -577
    x[2]      c1        133
    x[2]      c2        4
    x[2]      OBJ       -937
    x[3]      c1        988
    x[3]      c2        414
    x[3]      OBJ       -662
    x[4]      c1        721
    x[4]      c2        803
    x[4]      OBJ       -503
    x[5]      c1        524
    x[5]      c2        362
    x[5]      OBJ       -199
    x[6]      c1        763
    x[6]      c2        45
    x[6]      OBJ       -209
    x[7]      c1        696
    x[7]      c2        21
    x[7]      OBJ       -31
    x[8]      c1        153
    x[8]      c2        139
    x[8]      OBJ       -757
    x[9]      c1        924
    x[9]      c2        39
    x[9]      OBJ       -410
    x[10]     c1        971
    x[10]     c2        939
    x[10]     OBJ       -270
    x[11]     c1        906
    x[11]     c2        139
    x[11]     OBJ       -434
    x[12]     c1        158
    x[12]     c2        219
    x[12]     OBJ       -109
    x[13]     c1        100
    x[13]     c2        621
    x[13]     OBJ       -274
    x[14]     c1        40
    x[14]     c2        101
    x[14]     OBJ       -606
    x[15]     c1        990
    x[15]     c2        360
    x[15]     OBJ       -674
    x[16]     c1        118
    x[16]     c2        145
    x[16]     OBJ       -404
    x[17]     c1        760
    x[17]     c2        518
    x[17]     OBJ       -626
    x[18]     c1        638
    x[18]     c2        49
    x[18]     OBJ       -510
    x[19]     c1        105
    x[19]     c2        700
    x[19]     OBJ       -133
    x[20]     c1        295
    x[20]     c2        410
    x[20]     OBJ       -342
    x[21]     c1        780
    x[21]     c2        496
    x[21]     OBJ       -771
    x[22]     c1        789
    x[22]     c2        613
    x[22]     OBJ       -366
    x[23]     c1        736
    x[23]     c2        832
    x[23]     OBJ       -479
    x[24]     c1        818
    x[24]     c2        481
    x[24]     OBJ       -765
    x[25]     c1        436
    x[25]     c2        389
    x[25]     OBJ       -269
    x[26]     c1        845
    x[26]     c2        310
    x[26]     OBJ       -34
    x[27]     c1        466
    x[27]     c2        458
    x[27]     OBJ       -722
    x[28]     c1        768
    x[28]     c2        516
    x[28]     OBJ       -3
    x[29]     c1        381
    x[29]     c2        356
    x[29]     OBJ       -933
    x[30]     c1        871
    x[30]     c2        583
    x[30]     OBJ       -750
    x[31]     c1        734
    x[31]     c2        985
    x[31]     OBJ       -474
    x[32]     c1        261
    x[32]     c2        817
    x[32]     OBJ       -553
    x[33]     c1        889
    x[33]     c2        622
    x[33]     OBJ       -59
    x[34]     c1        266
    x[34]     c2        763
    x[34]     OBJ       -848
    x[35]     c1        330
    x[35]     c2        63
    x[35]     OBJ       -815
    x[36]     c1        781
    x[36]     c2        526
    x[36]     OBJ       -419
    x[37]     c1        83
    x[37]     c2        847
    x[37]     OBJ       -483
    x[38]     c1        542
    x[38]     c2        828
    x[38]     OBJ       -465
    x[39]     c1        292
    x[39]     c2        772
    x[39]     OBJ       -336
    x[40]     c1        423
    x[40]     c2        209
    x[40]     OBJ       -565
    x[41]     c1        489
    x[41]     c2        693
    x[41]     OBJ       -63
    x[42]     c1        431
    x[42]     c2        564
    x[42]     OBJ       -600
    x[43]     c1        886
    x[43]     c2        853
    x[43]     OBJ       -970
    x[44]     c1        197
    x[44]     c2        474
    x[44]     OBJ       -556
    x[45]     c1        809
    x[45]     c2        699
    x[45]     OBJ       -286
RHS
    rhs       c1        12391
    rhs       c2        10704
RANGES
BOUNDS
 BV bounds    x[1]
 BV bounds    x[2]
 BV bounds    x[3]
 BV bounds    x[4]
 BV bounds    x[5]
 BV bounds    x[6]
 BV bounds    x[7]
 BV bounds    x[8]
 BV bounds    x[9]
 BV bounds    x[10]
 BV bounds    x[11]
 BV bounds    x[12]
 BV bounds    x[13]
 BV bounds    x[14]
 BV bounds    x[15]
 BV bounds    x[16]
 BV bounds    x[17]
 BV bounds    x[18]
 BV bounds    x[19]
 BV bounds    x[20]
 BV bounds    x[21]
 BV bounds    x[22]
 BV bounds    x[23]
 BV bounds    x[24]
 BV bounds    x[25]
 BV bounds    x[26]
 BV bounds    x[27]
 BV bounds    x[28]
 BV bounds    x[29]
 BV bounds    x[30]
 BV bounds    x[31]
 BV bounds    x[32]
 BV bounds    x[33]
 BV bounds    x[34]
 BV bounds    x[35]
 BV bounds    x[36]
 BV bounds    x[37]
 BV bounds    x[38]
 BV bounds    x[39]
 BV bounds    x[40]
 BV bounds    x[41]
 BV bounds    x[42]
 BV bounds    x[43]
 BV bounds    x[44]
 BV bounds    x[45]
ENDATA
